SAT
-76 75 -41 49 51 65 42 -71 77 -40 -86 -58 60 12 26 -53 64 -35 -31 -88 82 -28 48 -2 -67 17 -5 63 -15 -69 -90 -6 11 -14 56 62 1 54 -43 99 -57 80 -18 74 -24 -70 -66 -87 -36 -7 -50 96 -21 38 -19 -79 -95 52 -100 3 4 68 -8 -98 -30 59 -13 -91 -92 47 20 -45 46 -25 9 83 37 89 16 -73 -33 39 -84 -22 78 -93 27 55 61 10 -44 81 34 -94 -23 32 85 -72 29 97 0
